<number of tasks>
250

<cycle time>
1000

<order strength>
0.595


<task times>
1 496
2 455
3 485
4 461
5 562
6 525
7 545
8 697
9 357
10 593
11 370
12 726
13 688
14 330
15 553
16 515
17 497
18 755
19 488
20 439
21 568
22 633
23 448
24 394
25 655
26 687
27 459
28 271
29 263
30 301
31 441
32 358
33 494
34 450
35 684
36 568
37 329
38 475
39 664
40 535
41 417
42 745
43 413
44 490
45 556
46 522
47 575
48 597
49 458
50 563
51 484
52 648
53 566
54 530
55 395
56 281
57 610
58 562
59 545
60 506
61 657
62 597
63 623
64 546
65 620
66 419
67 559
68 450
69 728
70 464
71 522
72 427
73 698
74 483
75 798
76 362
77 554
78 502
79 443
80 392
81 465
82 273
83 580
84 491
85 594
86 556
87 537
88 556
89 610
90 678
91 423
92 342
93 538
94 533
95 602
96 396
97 580
98 656
99 385
100 540
101 513
102 480
103 559
104 310
105 429
106 613
107 689
108 657
109 497
110 596
111 569
112 637
113 422
114 586
115 237
116 559
117 338
118 567
119 719
120 501
121 517
122 364
123 540
124 417
125 239
126 511
127 658
128 458
129 378
130 539
131 483
132 347
133 201
134 595
135 596
136 462
137 662
138 659
139 428
140 528
141 545
142 309
143 523
144 402
145 685
146 261
147 642
148 224
149 635
150 542
151 516
152 548
153 426
154 511
155 483
156 745
157 337
158 539
159 550
160 453
161 512
162 460
163 558
164 569
165 424
166 259
167 532
168 520
169 358
170 582
171 595
172 507
173 620
174 626
175 348
176 239
177 522
178 610
179 761
180 320
181 501
182 526
183 674
184 339
185 275
186 529
187 523
188 418
189 241
190 573
191 415
192 437
193 712
194 350
195 535
196 548
197 760
198 441
199 377
200 704
201 430
202 459
203 370
204 735
205 410
206 467
207 356
208 737
209 430
210 457
211 338
212 662
213 444
214 456
215 394
216 774
217 340
218 396
219 376
220 587
221 630
222 661
223 527
224 447
225 565
226 456
227 409
228 438
229 456
230 670
231 662
232 516
233 224
234 502
235 542
236 568
237 502
238 497
239 668
240 473
241 406
242 467
243 510
244 469
245 430
246 432
247 634
248 559
249 527
250 417

<precedence relations>
1,5
1,6
1,7
1,11
1,12
2,7
2,8
2,9
2,10
3,10
3,47
4,9
4,11
4,12
5,13
6,14
7,15
7,16
7,17
7,18
8,64
8,99
9,43
9,73
9,74
10,17
11,17
11,18
12,17
12,48
13,21
14,21
15,19
16,20
17,21
17,23
18,22
18,55
19,25
20,26
21,28
21,29
21,31
21,32
21,54
21,55
22,24
22,28
22,29
22,30
22,33
22,63
23,27
23,28
23,29
24,35
25,37
26,34
27,39
28,36
28,40
28,66
29,38
29,40
29,71
30,41
30,42
30,43
31,40
32,59
33,40
33,41
34,44
35,47
36,45
37,48
38,46
39,49
40,53
40,64
40,72
41,51
42,130
42,132
43,65
44,50
45,51
46,52
47,51
47,52
47,53
48,51
48,52
48,53
48,55
49,54
50,56
51,57
51,65
51,75
52,57
52,59
53,57
53,82
54,57
55,58
55,60
56,62
57,61
57,62
57,89
58,65
59,64
59,87
59,124
60,63
60,66
61,68
62,69
62,70
63,67
63,70
64,73
64,74
64,75
64,122
65,70
65,71
66,70
66,72
67,77
68,76
69,78
70,79
70,80
70,81
71,79
71,80
71,81
71,82
72,79
72,80
72,81
72,82
73,100
73,116
74,88
75,236
76,83
77,84
78,85
79,91
79,123
80,110
80,123
81,86
81,87
81,90
81,117
81,124
82,88
82,89
82,118
82,124
83,92
84,93
85,98
86,94
86,97
87,95
87,97
87,109
87,115
88,96
88,139
89,131
89,181
90,100
90,110
90,156
90,157
91,97
91,99
92,101
93,102
94,104
95,105
96,106
97,103
97,107
97,108
97,118
97,122
98,107
98,108
98,191
99,110
99,111
99,199
100,109
100,118
100,139
101,115
102,112
103,113
104,114
105,116
106,117
107,195
107,208
108,139
108,183
109,184
110,118
110,201
111,197
111,200
112,124
113,119
114,120
115,121
115,122
116,232
117,123
118,196
118,233
119,129
120,127
121,128
122,125
122,131
122,132
123,126
123,130
123,131
124,131
125,133
126,134
127,138
128,135
129,136
129,139
130,137
131,140
132,181
132,182
132,189
133,145
134,141
135,142
136,143
137,144
138,146
139,172
139,195
140,146
140,147
140,148
140,149
141,154
142,150
143,151
144,155
145,152
146,153
146,156
146,157
148,215
149,154
149,155
149,163
150,158
151,159
152,161
153,160
154,162
154,164
155,162
155,165
155,166
156,243
157,163
157,173
158,167
159,170
160,168
161,171
162,169
162,217
163,172
164,173
164,174
164,176
166,175
166,188
166,198
167,177
168,178
169,180
170,179
171,181
172,184
172,185
174,207
175,183
175,195
176,182
176,188
177,188
178,186
179,187
180,188
181,190
182,190
182,191
183,197
183,218
184,189
184,209
185,208
186,193
187,192
188,196
188,199
190,195
190,200
190,201
191,194
191,196
191,197
191,198
192,204
193,203
194,202
195,205
195,206
195,209
197,209
199,218
200,236
201,207
201,208
201,217
202,211
203,212
204,210
205,214
206,213
206,217
208,216
208,218
209,215
209,216
210,219
211,220
212,221
213,222
214,223
215,224
215,249
218,225
218,226
218,227
219,229
220,228
221,231
222,232
223,232
224,230
225,233
225,236
226,234
227,235
227,243
228,237
229,239
230,238
231,241
232,243
233,240
234,242
237,244
238,245
239,246
240,247
241,248
242,250
243,249

<end>
